543 5
10 10 10 10 10 

0 0 0 0 0 0 5 2 14 26 38 50 
0 0 0 0 0 0 3 3 9 12 
5 0 0 1 0 0 2 8 4 
5 0 0 1 0 0 1 5 
8 0 0 3 0 0 1 6 
10 0 0 3 0 0 1 7 
4 0 0 3 0 0 1 10 
9 0 0 3 0 0 1 10 
4 0 0 4 0 0 1 10 
4 0 0 3 0 0 1 11 
8 0 0 2 0 0 2 13 411 
10 0 0 2 0 0 1 13 
0 0 0 0 0 0 1 62 
0 0 0 0 0 0 1 15 
9 0 0 1 0 0 2 17 16 
1 0 0 1 0 0 2 21 19 
9 0 0 3 0 0 2 21 18 
7 0 0 4 0 0 1 20 
2 0 0 3 0 0 2 20 410 
3 0 0 1 0 0 1 22 
5 0 0 5 0 0 1 22 
3 0 0 2 0 0 1 23 
8 0 0 2 0 0 1 24 
8 0 0 3 0 0 1 25 
0 0 0 0 0 0 1 62 
0 0 0 0 0 0 1 27 
7 0 1 0 0 0 1 28 
8 0 2 0 0 0 1 29 
10 0 4 0 0 0 3 32 30 39 
5 0 3 0 0 0 1 31 
1 0 1 0 0 0 3 36 35 33 
8 0 4 0 0 0 2 35 34 
7 0 2 0 0 0 1 34 
2 0 3 0 0 0 1 37 
6 0 4 0 0 0 1 37 
8 0 1 0 0 0 1 37 
0 0 0 0 0 0 1 62 
0 0 0 0 0 0 2 39 416 
3 0 0 1 0 0 1 40 
7 0 0 2 0 0 1 41 
9 0 0 3 0 0 1 42 
3 0 0 3 0 0 2 44 43 
5 0 0 2 0 0 2 46 45 
2 0 0 2 0 0 2 48 46 
3 0 0 2 0 0 2 48 47 
3 0 0 1 0 0 1 47 
10 0 0 6 0 0 1 49 
9 0 0 3 0 0 1 49 
0 0 0 0 0 0 1 62 
0 0 0 0 0 0 1 51 
5 0 1 0 0 0 1 52 
1 0 3 0 0 0 2 55 53 
7 0 3 0 0 0 1 54 
3 0 4 0 0 0 2 57 56 
9 0 2 0 0 0 1 56 
9 0 2 0 0 0 2 60 58 
6 0 2 0 0 0 2 58 443 
1 0 2 0 0 0 1 59 
6 0 3 0 0 0 1 61 
8 0 3 0 0 0 1 61 
0 0 0 0 0 0 1 62 
0 0 0 0 0 0 5 63 105 147 189 201 
0 0 0 0 0 0 3 64 73 81 
4 1 0 1 1 1 1 65 
9 2 0 4 4 2 1 66 
8 3 0 1 1 3 1 67 
8 3 0 2 3 2 1 68 
4 1 0 2 2 1 2 78 69 
1 4 0 3 3 1 1 70 
3 2 0 2 2 4 1 71 
6 2 0 2 7 3 1 72 
6 2 0 2 2 4 1 74 
8 1 0 1 2 3 1 74 
6 1 0 3 1 3 1 75 
3 1 0 1 1 1 2 94 76 
3 4 0 3 3 1 1 77 
3 2 0 4 3 2 2 103 79 
6 5 0 5 1 6 2 103 79 
2 2 0 1 2 4 2 93 80 
8 3 0 4 2 3 2 102 82 
4 2 0 3 2 5 2 93 82 
9 2 0 2 2 1 1 83 
1 2 0 4 2 3 1 84 
7 4 0 2 3 2 1 85 
2 3 0 1 3 1 2 99 86 
4 3 0 3 3 1 3 101 100 87 
9 6 0 1 1 1 1 88 
9 2 0 3 4 2 1 89 
3 1 0 1 1 2 1 90 
8 1 0 2 2 5 1 91 
3 1 0 3 5 2 1 92 
3 2 0 2 3 3 1 95 
4 1 0 1 1 3 1 95 
2 1 0 3 2 4 2 99 97 
9 5 0 3 3 1 1 96 
9 3 0 3 4 2 1 97 
3 6 0 3 3 1 2 98 190 
7 2 0 3 2 2 1 104 
2 3 0 3 3 3 1 104 
5 4 0 1 3 3 1 104 
3 2 0 5 3 2 1 104 
2 3 0 4 3 5 1 104 
7 2 0 3 2 2 1 104 
0 0 0 0 0 0 1 543 
0 0 0 0 0 0 3 106 119 127 
5 1 0 1 1 1 1 107 
10 3 0 2 1 2 1 108 
10 2 0 1 1 4 1 109 
9 3 0 1 2 4 1 110 
2 3 0 4 1 3 2 121 111 
1 2 0 5 1 1 1 112 
4 2 0 2 1 3 1 113 
5 1 0 2 4 2 1 114 
7 2 0 4 4 3 1 115 
1 4 0 2 1 2 2 145 116 
9 1 0 3 3 5 1 117 
5 4 0 1 5 3 1 118 
4 3 0 5 2 2 2 144 120 
6 3 0 1 3 1 2 145 120 
4 2 0 1 1 3 3 143 137 122 
7 1 0 2 4 4 2 143 124 
6 2 0 1 4 5 1 123 
6 3 0 2 1 2 1 124 
5 2 0 3 3 2 1 125 
4 1 0 6 2 1 1 126 
9 2 0 4 1 3 2 142 128 
2 3 0 2 1 1 4 142 141 140 129 
5 7 0 4 1 2 3 141 140 129 
8 2 0 1 3 1 1 130 
10 6 0 1 2 2 1 131 
10 2 0 2 3 2 1 132 
6 1 0 3 3 5 1 133 
8 2 0 2 4 1 1 134 
3 3 0 1 6 3 1 135 
5 4 0 3 2 4 1 136 
8 4 0 1 3 1 1 138 
3 2 0 3 3 4 1 138 
8 1 0 4 3 3 1 139 
10 2 0 3 5 3 1 146 
1 2 0 4 2 1 1 146 
1 2 0 3 3 4 1 146 
5 2 0 2 4 1 1 146 
8 1 0 2 2 2 1 146 
10 3 0 2 1 2 1 146 
6 4 0 4 3 2 1 146 
0 0 0 0 0 0 1 543 
0 0 0 0 0 0 3 148 151 153 
3 1 1 0 1 1 1 149 
10 2 2 0 1 2 1 150 
8 2 1 0 8 6 1 152 
10 3 2 0 3 3 1 152 
1 4 4 0 1 2 1 154 
8 1 2 0 2 3 1 154 
8 2 3 0 1 2 1 155 
5 3 1 0 1 1 1 156 
10 3 6 0 3 2 2 159 157 
5 2 1 0 2 2 1 158 
2 3 5 0 2 1 1 160 
9 4 5 0 2 1 1 160 
2 4 4 0 1 1 1 161 
10 4 3 0 2 3 1 162 
6 1 4 0 3 4 1 163 
8 2 3 0 2 5 2 168 164 
10 2 2 0 6 1 2 172 165 
1 2 2 0 2 4 1 166 
9 3 1 0 4 5 2 187 167 
6 2 2 0 2 3 1 169 
5 3 3 0 2 1 2 175 171 
10 1 2 0 2 4 1 170 
6 2 2 0 2 3 1 171 
1 2 1 0 3 2 2 183 173 
10 2 3 0 2 1 2 183 173 
6 2 1 0 3 2 2 186 174 
8 2 2 0 3 2 2 185 176 
1 3 3 0 2 2 1 176 
10 3 4 0 4 3 1 177 
9 2 3 0 3 5 1 178 
9 4 4 0 2 1 1 179 
3 2 1 0 2 3 1 180 
10 2 1 0 2 2 1 181 
4 1 1 0 3 1 1 182 
9 1 1 0 3 1 1 184 
5 3 1 0 2 5 1 184 
10 9 1 0 3 2 1 188 
6 2 7 0 1 3 1 188 
3 3 3 0 4 3 1 188 
4 1 2 0 3 2 1 188 
0 0 0 0 0 0 1 543 
0 0 0 0 0 0 2 190 199 
10 0 1 0 0 0 1 191 
3 0 3 0 0 0 1 192 
4 0 6 0 0 0 3 198 197 193 
1 0 2 0 0 0 1 194 
4 0 1 0 0 0 1 195 
8 0 1 0 0 0 1 196 
7 0 2 0 0 0 1 200 
1 0 2 0 0 0 1 200 
7 0 3 0 0 0 1 200 
6 0 4 0 0 0 1 200 
0 0 0 0 0 0 5 243 275 287 319 351 
0 0 0 0 0 0 3 202 240 241 
10 1 1 1 1 0 1 203 
10 2 3 2 2 0 1 204 
10 5 3 4 1 0 1 205 
1 4 5 1 2 0 2 239 206 
3 4 2 2 4 0 2 238 207 
4 5 1 2 4 0 1 208 
8 2 1 2 2 0 1 209 
8 1 3 2 1 0 1 210 
3 3 2 2 4 0 1 211 
2 3 2 4 1 0 1 212 
10 3 4 3 2 0 2 237 213 
1 3 4 4 1 0 3 236 235 214 
1 3 3 4 3 0 1 215 
10 5 4 2 2 0 1 216 
2 3 3 1 3 0 1 217 
9 2 1 1 6 0 1 218 
5 1 1 2 1 0 2 234 219 
6 2 2 2 3 0 3 233 232 220 
8 1 1 1 3 0 1 221 
5 1 3 3 1 0 1 222 
8 3 3 2 6 0 1 223 
1 4 3 3 3 0 1 224 
6 3 1 4 4 0 1 225 
6 1 5 1 2 0 1 226 
3 4 4 3 2 0 1 227 
1 3 1 3 2 0 1 228 
3 2 1 3 2 0 1 229 
1 1 2 6 4 0 1 230 
9 4 3 2 1 0 1 231 
3 2 4 2 3 0 1 242 
3 1 2 3 2 0 1 242 
2 2 3 2 1 0 1 242 
5 2 1 3 1 0 1 242 
10 5 2 2 3 0 1 242 
5 3 4 3 2 0 1 242 
9 2 2 1 3 0 1 242 
2 1 2 1 5 0 1 242 
10 1 3 6 2 0 1 242 
6 1 3 3 2 0 1 242 
3 1 2 2 3 0 1 242 
0 0 0 0 0 0 1 543 
0 0 0 0 0 0 2 244 263 
4 0 1 1 1 0 1 245 
2 0 3 1 2 0 1 246 
7 0 3 3 2 0 1 247 
2 0 2 4 4 0 1 248 
6 0 2 3 2 0 2 255 249 
8 0 3 2 2 0 1 250 
8 0 2 2 1 0 1 251 
1 0 1 2 2 0 3 260 254 252 
4 0 2 5 3 0 2 257 253 
2 0 2 3 1 0 3 262 259 256 
3 0 1 3 4 0 2 262 258 
9 0 4 2 2 0 1 256 
8 0 2 4 3 0 1 258 
9 0 3 4 1 0 1 258 
10 0 3 2 2 0 1 261 
10 0 3 4 4 0 1 261 
1 0 2 2 2 0 1 262 
6 0 7 1 3 0 1 264 
8 0 1 1 3 0 1 264 
3 0 3 3 3 0 1 264 
8 0 4 3 2 0 1 265 
4 0 1 3 4 0 2 272 266 
7 0 2 4 3 0 1 267 
2 0 3 2 5 0 1 268 
10 0 1 2 2 0 1 269 
7 0 3 1 3 0 1 270 
7 0 3 1 3 0 1 271 
2 0 4 4 2 0 1 273 
9 0 1 2 2 0 1 273 
2 0 3 1 2 0 1 274 
0 0 0 0 0 0 1 543 
0 0 0 0 0 0 2 276 283 
8 0 0 0 1 0 1 277 
4 0 0 0 3 0 2 285 278 
9 0 0 0 2 0 1 279 
3 0 0 0 7 0 2 282 280 
1 0 0 0 3 0 1 281 
8 0 0 0 4 0 1 284 
3 0 0 0 2 0 1 284 
3 0 0 0 1 0 1 284 
3 0 0 0 1 0 1 286 
3 0 0 0 1 0 1 286 
0 0 0 0 0 0 5 383 405 427 449 461 
0 0 0 0 0 0 6 288 313 314 315 316 317 
4 1 0 1 0 1 1 289 
5 2 0 2 0 3 1 290 
6 2 0 3 0 3 1 291 
10 1 0 3 0 5 3 312 311 292 
3 5 0 4 0 2 1 293 
4 1 0 2 0 1 1 294 
9 2 0 2 0 3 1 295 
7 2 0 2 0 3 1 296 
10 1 0 1 0 4 1 297 
6 2 0 2 0 3 1 298 
4 3 0 1 0 1 1 299 
1 4 0 3 0 3 2 310 300 
10 3 0 4 0 2 1 301 
6 2 0 3 0 3 1 302 
8 2 0 2 0 5 1 303 
6 3 0 2 0 3 1 304 
9 3 0 4 0 2 1 305 
10 2 0 3 0 4 1 306 
8 4 0 4 0 3 1 307 
1 3 0 4 0 2 1 308 
10 2 0 1 0 1 1 309 
7 3 0 3 0 1 1 318 
10 3 0 1 0 2 1 318 
4 3 0 3 0 3 1 318 
7 2 0 5 0 1 1 318 
7 2 0 3 0 2 1 318 
8 3 0 1 0 2 1 318 
8 3 0 2 0 2 1 318 
5 2 0 2 0 1 1 318 
2 4 0 2 0 4 1 318 
0 0 0 0 0 0 1 543 
0 0 0 0 0 0 2 320 349 
1 1 0 1 1 0 1 321 
6 1 0 5 5 0 1 322 
2 1 0 1 4 0 1 323 
4 3 0 2 2 0 1 324 
8 3 0 3 3 0 2 348 325 
4 4 0 3 5 0 1 326 
3 2 0 3 2 0 1 327 
1 4 0 1 2 0 5 347 340 333 332 328 
2 4 0 3 2 0 1 329 
5 2 0 2 1 0 2 335 330 
3 3 0 2 1 0 1 331 
1 2 0 5 4 0 1 334 
1 7 0 1 2 0 1 335 
10 3 0 1 1 0 1 334 
4 1 0 2 3 0 1 336 
2 3 0 3 2 0 1 336 
5 2 0 2 2 0 1 337 
3 1 0 3 4 0 2 346 338 
2 3 0 4 3 0 1 339 
2 3 0 2 4 0 1 341 
10 1 0 2 3 0 1 341 
9 2 0 2 1 0 1 342 
8 2 0 2 2 0 1 343 
2 1 0 3 4 0 1 344 
9 3 0 2 1 0 1 345 
4 6 0 4 1 0 1 350 
10 2 0 5 2 0 1 350 
1 2 0 2 2 0 1 350 
5 2 0 2 3 0 1 350 
6 1 0 2 3 0 1 350 
0 0 0 0 0 0 1 543 
0 0 0 0 0 0 2 352 381 
10 1 0 0 1 1 1 353 
8 3 0 0 3 3 1 354 
1 3 0 0 5 3 1 355 
8 1 0 0 1 2 1 356 
3 6 0 0 2 2 2 380 357 
1 2 0 0 5 2 1 358 
4 1 0 0 2 1 2 379 359 
6 4 0 0 2 5 4 378 377 376 360 
4 2 0 0 1 2 2 370 361 
1 3 0 0 3 2 1 362 
1 1 0 0 2 1 1 363 
4 4 0 0 3 4 1 364 
9 3 0 0 2 2 2 375 365 
3 2 0 0 4 2 1 366 
4 4 0 0 2 2 1 367 
6 2 0 0 1 2 1 368 
9 1 0 0 2 2 1 369 
9 2 0 0 2 3 1 371 
2 4 0 0 2 3 1 371 
8 3 0 0 4 2 1 372 
8 2 0 0 2 3 1 373 
8 1 0 0 2 3 1 374 
5 4 0 0 4 5 1 382 
4 1 0 0 2 1 1 382 
4 2 0 0 5 4 1 382 
3 1 0 0 3 2 1 382 
5 2 0 0 1 2 1 382 
2 2 0 0 3 5 1 382 
9 2 0 0 3 2 1 382 
3 6 0 0 1 2 1 382 
0 0 0 0 0 0 1 543 
0 0 0 0 0 0 3 384 392 393 
8 0 0 1 1 0 1 385 
10 0 0 1 1 0 1 386 
2 0 0 3 3 0 1 387 
10 0 0 3 2 0 1 388 
8 0 0 2 1 0 2 399 389 
10 0 0 4 5 0 1 390 
10 0 0 1 2 0 1 391 
5 0 0 3 3 0 2 403 394 
9 0 0 3 1 0 2 403 395 
4 0 0 3 2 0 2 400 396 
8 0 0 1 3 0 1 395 
9 0 0 2 5 0 1 396 
1 0 0 2 6 0 1 397 
3 0 0 3 2 0 1 398 
3 0 0 2 2 0 1 401 
8 0 0 2 1 0 1 401 
1 0 0 4 2 0 1 401 
10 0 0 4 3 0 1 402 
9 0 0 3 1 0 1 404 
1 0 0 3 4 0 1 404 
0 0 0 0 0 0 1 543 
0 0 0 0 0 0 2 406 415 
5 0 1 1 0 0 1 407 
5 0 2 2 0 0 1 408 
5 0 4 2 0 0 1 409 
2 0 3 2 0 0 3 425 413 410 
3 0 1 1 0 0 1 411 
3 0 3 2 0 0 1 412 
10 0 2 2 0 0 1 414 
8 0 3 3 0 0 1 414 
7 0 3 4 0 0 2 422 416 
6 0 2 2 0 0 1 416 
9 0 7 1 0 0 1 417 
5 0 1 2 0 0 2 424 418 
8 0 1 1 0 0 1 419 
2 0 3 3 0 0 1 420 
4 0 2 2 0 0 1 421 
2 0 4 4 0 0 1 423 
4 0 4 5 0 0 1 424 
4 0 1 6 0 0 1 426 
9 0 2 3 0 0 1 426 
7 0 1 2 0 0 1 426 
0 0 0 0 0 0 1 543 
0 0 0 0 0 0 2 428 430 
1 0 0 1 1 0 2 433 429 
6 0 0 3 3 0 1 431 
6 0 0 1 2 0 1 431 
8 0 0 4 3 0 1 432 
3 0 0 2 1 0 1 434 
9 0 0 2 4 0 1 434 
9 0 0 4 3 0 1 435 
7 0 0 1 2 0 3 444 439 436 
5 0 0 2 3 0 1 437 
10 0 0 4 5 0 1 438 
9 0 0 1 3 0 2 447 440 
10 0 0 3 3 0 2 447 440 
8 0 0 1 1 0 1 441 
7 0 0 5 2 0 1 442 
10 0 0 5 3 0 1 443 
1 0 0 2 3 0 1 445 
7 0 0 1 3 0 1 445 
4 0 0 3 1 0 1 446 
6 0 0 2 3 0 1 448 
6 0 0 3 1 0 1 448 
0 0 0 0 0 0 1 543 
0 0 0 0 0 0 2 450 451 
9 0 0 0 1 0 2 459 452 
1 0 0 0 3 0 2 459 454 
5 0 0 0 3 0 1 453 
10 0 0 0 3 0 1 454 
9 0 0 0 4 0 1 455 
1 0 0 0 4 0 2 458 456 
9 0 0 0 2 0 1 457 
3 0 0 0 2 0 1 460 
6 0 0 0 2 0 1 460 
8 0 0 0 1 0 1 460 
0 0 0 0 0 0 5 483 495 507 519 531 
0 0 0 0 0 0 3 462 465 468 
8 1 0 1 0 0 1 463 
3 5 0 1 0 0 1 464 
7 1 0 3 0 0 1 466 
3 3 0 1 0 0 2 470 469 
3 4 0 2 0 0 1 467 
2 4 0 2 0 0 2 474 469 
6 4 0 2 0 0 1 469 
1 2 0 3 0 0 1 471 
6 3 0 3 0 0 2 474 473 
8 5 0 2 0 0 1 472 
7 1 0 2 0 0 1 473 
10 1 0 3 0 0 2 481 475 
6 1 0 4 0 0 1 475 
5 3 0 2 0 0 1 476 
2 2 0 3 0 0 1 477 
9 2 0 3 0 0 1 478 
4 2 0 2 0 0 1 479 
5 2 0 4 0 0 1 480 
10 2 0 5 0 0 1 482 
6 2 0 2 0 0 1 482 
0 0 0 0 0 0 1 543 
0 0 0 0 0 0 2 484 490 
2 0 1 0 0 0 2 492 485 
1 0 4 0 0 0 2 493 486 
8 0 6 0 0 0 1 487 
9 0 1 0 0 0 1 488 
9 0 2 0 0 0 1 489 
1 0 1 0 0 0 1 491 
3 0 3 0 0 0 1 492 
1 0 2 0 0 0 1 494 
10 0 4 0 0 0 1 494 
6 0 1 0 0 0 1 494 
0 0 0 0 0 0 1 543 
0 0 0 0 0 0 1 496 
9 0 0 0 0 1 3 502 501 497 
10 0 0 0 0 4 1 498 
6 0 0 0 0 4 2 505 499 
2 0 0 0 0 1 1 500 
3 0 0 0 0 5 1 503 
6 0 0 0 0 3 1 503 
2 0 0 0 0 1 1 503 
4 0 0 0 0 3 1 504 
7 0 0 0 0 2 1 506 
1 0 0 0 0 1 1 506 
0 0 0 0 0 0 1 543 
0 0 0 0 0 0 2 508 511 
9 0 0 1 0 0 2 512 509 
1 0 0 4 0 0 1 510 
10 0 0 2 0 0 2 516 513 
8 0 0 2 0 0 1 512 
5 0 0 3 0 0 2 516 515 
8 0 0 3 0 0 1 514 
6 0 0 2 0 0 1 515 
2 0 0 3 0 0 1 517 
3 0 0 4 0 0 1 517 
5 0 0 1 0 0 1 518 
0 0 0 0 0 0 1 543 
0 0 0 0 0 0 3 520 523 524 
3 0 0 0 0 1 1 521 
7 0 0 0 0 3 1 522 
4 0 0 0 0 2 1 525 
2 0 0 0 0 2 1 525 
8 0 0 0 0 2 1 525 
8 0 0 0 0 3 2 529 526 
10 0 0 0 0 5 1 527 
2 0 0 0 0 3 1 528 
4 0 0 0 0 1 1 530 
10 0 0 0 0 3 1 530 
0 0 0 0 0 0 1 543 
0 0 0 0 0 0 2 532 533 
1 0 1 0 0 0 2 536 534 
10 0 4 0 0 0 2 536 534 
7 0 3 0 0 0 2 541 535 
10 0 4 0 0 0 1 537 
5 0 1 0 0 0 1 537 
10 0 2 0 0 0 1 538 
4 0 4 0 0 0 1 539 
9 0 3 0 0 0 1 540 
10 0 2 0 0 0 1 542 
3 0 1 0 0 0 1 542 
0 0 0 0 0 0 1 543 
0 0 0 0 0 0 0 
